120
150
56
50
52
58
50
60
54
54
55
50
40
44
45
54
40
48
56
48
53
59
48
50
55
43
46
60
59
54
44
41
54
50
46
47
54
49
53
54
50
54
45
43
48
58
57
44
53
52
55
56
49
47
42
55
52
45
46
54
49
54
55
48
53
43
50
52
56
49
48
57
50
48
58
54
53
47
53
57
42
59
46
54
55
55
51
43
49
48
49
50
48
60
40
40
52
49
41
52
53
41
46
45
49
44
60
55
45
45
46
44
49
44
44
43
50
51
59
54
59
60
